% Data file generated from RandomInstances/10_0.85_1.col DIMACS file
size = 10;

chi = 8;

adjacency = [|0,1,1,1,1,1,1,1,1,1,
|1,0,1,1,1,1,1,1,1,1,
|1,1,0,1,0,1,1,1,1,1,
|1,1,1,0,1,1,1,1,1,1,
|1,1,0,1,0,1,1,0,1,1,
|1,1,1,1,1,0,1,1,1,0,
|1,1,1,1,1,1,0,1,1,1,
|1,1,1,1,0,1,1,0,1,1,
|1,1,1,1,1,1,1,1,0,1,
|1,1,1,1,1,0,1,1,1,0,
|];